c 
c G(n,p) graph
c graph gen seed     : 1010
c number of vertices : 80
c max number of edges: 3160
c edge probability   : 0.400000
c data structure     : sparse
c
c           Graph Stats
c number of vertices  : 80
c nonisolated vertices: 80
c number of edges     : 1262
c edge density        : 0.399367
c max degree          : 42
c avg degree          : 31.55
c min degree          : 22
p col 80 1262
e 1 80
e 1 79
e 1 77
e 1 75
e 1 69
e 1 66
e 1 65
e 1 64
e 1 63
e 1 62
e 1 61
e 1 56
e 1 51
e 1 49
e 1 46
e 1 43
e 1 41
e 1 40
e 1 39
e 1 38
e 1 37
e 1 35
e 1 33
e 1 32
e 1 31
e 1 30
e 1 23
e 1 22
e 1 20
e 1 13
e 1 11
e 1 5
e 1 4
e 1 3
e 2 79
e 2 77
e 2 74
e 2 70
e 2 68
e 2 67
e 2 64
e 2 63
e 2 61
e 2 59
e 2 56
e 2 52
e 2 51
e 2 49
e 2 48
e 2 46
e 2 44
e 2 43
e 2 42
e 2 41
e 2 40
e 2 31
e 2 29
e 2 28
e 2 26
e 2 25
e 2 21
e 2 18
e 2 16
e 2 9
e 2 8
e 2 5
e 3 79
e 3 75
e 3 73
e 3 70
e 3 63
e 3 62
e 3 59
e 3 55
e 3 54
e 3 52
e 3 49
e 3 45
e 3 42
e 3 41
e 3 38
e 3 36
e 3 35
e 3 30
e 3 29
e 3 26
e 3 25
e 3 24
e 3 23
e 3 21
e 3 19
e 3 16
e 3 11
e 3 8
e 3 6
e 4 80
e 4 79
e 4 78
e 4 76
e 4 74
e 4 69
e 4 65
e 4 64
e 4 61
e 4 60
e 4 59
e 4 58
e 4 54
e 4 49
e 4 46
e 4 44
e 4 43
e 4 37
e 4 34
e 4 32
e 4 25
e 4 24
e 4 22
e 4 21
e 4 20
e 4 19
e 4 17
e 4 16
e 4 15
e 4 12
e 4 5
e 5 76
e 5 75
e 5 74
e 5 72
e 5 69
e 5 68
e 5 67
e 5 66
e 5 52
e 5 49
e 5 47
e 5 45
e 5 42
e 5 38
e 5 37
e 5 36
e 5 34
e 5 33
e 5 31
e 5 29
e 5 25
e 5 20
e 5 16
e 5 14
e 5 9
e 5 6
e 6 76
e 6 74
e 6 71
e 6 68
e 6 67
e 6 58
e 6 57
e 6 54
e 6 52
e 6 51
e 6 50
e 6 46
e 6 43
e 6 40
e 6 37
e 6 36
e 6 35
e 6 28
e 6 25
e 6 23
e 6 20
e 6 19
e 6 17
e 6 16
e 6 14
e 6 7
e 7 79
e 7 76
e 7 75
e 7 74
e 7 72
e 7 70
e 7 69
e 7 67
e 7 65
e 7 63
e 7 62
e 7 60
e 7 59
e 7 56
e 7 53
e 7 52
e 7 47
e 7 43
e 7 38
e 7 35
e 7 34
e 7 33
e 7 32
e 7 30
e 7 26
e 7 25
e 7 24
e 7 22
e 7 21
e 7 19
e 7 17
e 7 14
e 7 13
e 8 80
e 8 78
e 8 75
e 8 73
e 8 72
e 8 70
e 8 69
e 8 68
e 8 67
e 8 56
e 8 53
e 8 50
e 8 49
e 8 48
e 8 38
e 8 37
e 8 29
e 8 27
e 8 25
e 8 22
e 8 21
e 8 17
e 8 13
e 9 74
e 9 72
e 9 71
e 9 69
e 9 63
e 9 61
e 9 60
e 9 59
e 9 53
e 9 50
e 9 47
e 9 45
e 9 44
e 9 43
e 9 40
e 9 38
e 9 36
e 9 35
e 9 33
e 9 26
e 9 25
e 9 24
e 9 21
e 9 18
e 9 17
e 9 14
e 10 80
e 10 78
e 10 74
e 10 71
e 10 70
e 10 69
e 10 67
e 10 58
e 10 57
e 10 56
e 10 55
e 10 54
e 10 51
e 10 49
e 10 45
e 10 39
e 10 38
e 10 36
e 10 33
e 10 29
e 10 28
e 10 27
e 10 26
e 10 25
e 10 24
e 10 19
e 10 18
e 10 16
e 10 12
e 11 80
e 11 79
e 11 76
e 11 74
e 11 73
e 11 72
e 11 69
e 11 68
e 11 67
e 11 61
e 11 60
e 11 54
e 11 50
e 11 47
e 11 46
e 11 44
e 11 43
e 11 40
e 11 37
e 11 36
e 11 31
e 11 30
e 11 29
e 11 28
e 11 26
e 11 24
e 11 20
e 11 16
e 11 15
e 11 14
e 11 12
e 12 80
e 12 77
e 12 74
e 12 73
e 12 72
e 12 67
e 12 65
e 12 64
e 12 62
e 12 59
e 12 58
e 12 54
e 12 52
e 12 49
e 12 45
e 12 44
e 12 36
e 12 28
e 12 27
e 12 25
e 12 24
e 12 23
e 12 22
e 12 20
e 12 19
e 12 18
e 12 16
e 12 14
e 13 79
e 13 77
e 13 75
e 13 74
e 13 73
e 13 72
e 13 69
e 13 68
e 13 67
e 13 62
e 13 58
e 13 55
e 13 54
e 13 53
e 13 52
e 13 50
e 13 48
e 13 47
e 13 44
e 13 40
e 13 39
e 13 35
e 13 33
e 13 32
e 13 31
e 13 30
e 13 26
e 13 23
e 13 22
e 13 21
e 13 14
e 14 80
e 14 77
e 14 75
e 14 74
e 14 73
e 14 71
e 14 70
e 14 69
e 14 68
e 14 63
e 14 61
e 14 59
e 14 58
e 14 53
e 14 52
e 14 49
e 14 47
e 14 46
e 14 45
e 14 40
e 14 39
e 14 33
e 14 29
e 14 28
e 14 26
e 14 21
e 14 16
e 14 15
e 15 79
e 15 78
e 15 75
e 15 74
e 15 72
e 15 68
e 15 62
e 15 60
e 15 58
e 15 54
e 15 51
e 15 49
e 15 48
e 15 44
e 15 43
e 15 40
e 15 37
e 15 36
e 15 35
e 15 33
e 15 32
e 15 30
e 15 29
e 15 27
e 15 25
e 15 23
e 15 20
e 15 16
e 16 80
e 16 79
e 16 78
e 16 75
e 16 69
e 16 66
e 16 62
e 16 61
e 16 60
e 16 59
e 16 57
e 16 52
e 16 49
e 16 48
e 16 45
e 16 40
e 16 38
e 16 36
e 16 34
e 16 32
e 16 31
e 16 30
e 16 27
e 16 25
e 16 24
e 16 23
e 16 20
e 16 19
e 16 18
e 17 80
e 17 70
e 17 66
e 17 61
e 17 60
e 17 57
e 17 55
e 17 52
e 17 49
e 17 46
e 17 45
e 17 44
e 17 40
e 17 35
e 17 34
e 17 31
e 17 26
e 17 25
e 17 23
e 18 77
e 18 76
e 18 75
e 18 72
e 18 71
e 18 68
e 18 67
e 18 57
e 18 56
e 18 51
e 18 50
e 18 49
e 18 48
e 18 46
e 18 40
e 18 39
e 18 37
e 18 34
e 18 33
e 18 30
e 18 29
e 18 27
e 18 26
e 18 24
e 18 22
e 18 20
e 19 80
e 19 77
e 19 76
e 19 74
e 19 62
e 19 60
e 19 58
e 19 57
e 19 55
e 19 53
e 19 51
e 19 50
e 19 47
e 19 45
e 19 43
e 19 35
e 19 34
e 19 33
e 19 31
e 19 30
e 19 29
e 19 28
e 19 23
e 19 22
e 19 21
e 19 20
e 20 79
e 20 77
e 20 67
e 20 64
e 20 62
e 20 61
e 20 60
e 20 59
e 20 51
e 20 50
e 20 49
e 20 48
e 20 46
e 20 44
e 20 43
e 20 40
e 20 39
e 20 35
e 20 34
e 20 33
e 20 32
e 20 31
e 20 27
e 20 25
e 20 24
e 20 23
e 21 80
e 21 79
e 21 74
e 21 70
e 21 67
e 21 64
e 21 61
e 21 59
e 21 58
e 21 56
e 21 55
e 21 51
e 21 46
e 21 44
e 21 43
e 21 39
e 21 38
e 21 37
e 21 36
e 21 34
e 21 33
e 21 31
e 21 30
e 21 28
e 21 25
e 22 80
e 22 79
e 22 78
e 22 75
e 22 73
e 22 71
e 22 70
e 22 69
e 22 68
e 22 66
e 22 61
e 22 60
e 22 55
e 22 54
e 22 50
e 22 49
e 22 43
e 22 38
e 22 37
e 22 36
e 22 34
e 22 33
e 22 30
e 22 29
e 22 27
e 22 23
e 23 78
e 23 77
e 23 71
e 23 68
e 23 67
e 23 66
e 23 62
e 23 61
e 23 60
e 23 59
e 23 58
e 23 57
e 23 54
e 23 53
e 23 50
e 23 49
e 23 47
e 23 46
e 23 44
e 23 42
e 23 41
e 23 38
e 23 34
e 23 26
e 23 25
e 24 75
e 24 74
e 24 72
e 24 71
e 24 65
e 24 63
e 24 59
e 24 55
e 24 54
e 24 52
e 24 49
e 24 48
e 24 47
e 24 46
e 24 44
e 24 39
e 24 38
e 24 32
e 24 25
e 25 79
e 25 78
e 25 74
e 25 73
e 25 72
e 25 65
e 25 63
e 25 62
e 25 61
e 25 59
e 25 54
e 25 53
e 25 51
e 25 45
e 25 44
e 25 43
e 25 42
e 25 40
e 25 35
e 25 34
e 25 31
e 25 28
e 25 27
e 25 26
e 26 78
e 26 77
e 26 74
e 26 73
e 26 71
e 26 70
e 26 68
e 26 67
e 26 61
e 26 57
e 26 54
e 26 51
e 26 50
e 26 47
e 26 46
e 26 44
e 26 37
e 26 36
e 26 31
e 26 30
e 26 29
e 27 79
e 27 77
e 27 76
e 27 75
e 27 73
e 27 68
e 27 65
e 27 62
e 27 60
e 27 51
e 27 49
e 27 48
e 27 47
e 27 45
e 27 44
e 27 41
e 27 35
e 27 28
e 28 80
e 28 79
e 28 77
e 28 72
e 28 70
e 28 66
e 28 64
e 28 62
e 28 58
e 28 56
e 28 54
e 28 53
e 28 52
e 28 50
e 28 47
e 28 46
e 28 45
e 28 44
e 28 43
e 28 42
e 28 40
e 28 39
e 28 35
e 28 34
e 28 33
e 28 31
e 28 30
e 29 78
e 29 77
e 29 76
e 29 75
e 29 74
e 29 73
e 29 69
e 29 67
e 29 57
e 29 56
e 29 54
e 29 53
e 29 50
e 29 45
e 29 41
e 29 40
e 29 37
e 29 36
e 29 34
e 29 30
e 30 80
e 30 77
e 30 76
e 30 75
e 30 73
e 30 68
e 30 67
e 30 65
e 30 58
e 30 55
e 30 53
e 30 51
e 30 49
e 30 45
e 30 35
e 31 77
e 31 75
e 31 74
e 31 73
e 31 72
e 31 69
e 31 66
e 31 61
e 31 59
e 31 58
e 31 56
e 31 55
e 31 53
e 31 51
e 31 50
e 31 49
e 31 43
e 31 42
e 31 38
e 31 37
e 31 35
e 31 34
e 32 80
e 32 77
e 32 75
e 32 74
e 32 73
e 32 70
e 32 68
e 32 67
e 32 65
e 32 62
e 32 60
e 32 59
e 32 58
e 32 56
e 32 48
e 32 44
e 32 41
e 32 37
e 32 36
e 33 80
e 33 78
e 33 77
e 33 76
e 33 72
e 33 71
e 33 69
e 33 68
e 33 67
e 33 60
e 33 59
e 33 57
e 33 54
e 33 53
e 33 52
e 33 49
e 33 43
e 33 42
e 33 37
e 33 36
e 33 35
e 34 79
e 34 78
e 34 75
e 34 74
e 34 73
e 34 68
e 34 65
e 34 61
e 34 60
e 34 57
e 34 56
e 34 54
e 34 52
e 34 51
e 34 49
e 34 47
e 34 44
e 34 43
e 34 42
e 34 41
e 34 39
e 34 36
e 35 80
e 35 79
e 35 76
e 35 71
e 35 70
e 35 68
e 35 67
e 35 60
e 35 58
e 35 57
e 35 56
e 35 52
e 35 47
e 35 45
e 35 41
e 35 38
e 35 37
e 36 78
e 36 76
e 36 73
e 36 72
e 36 65
e 36 63
e 36 62
e 36 58
e 36 57
e 36 56
e 36 55
e 36 53
e 36 52
e 36 50
e 36 49
e 36 47
e 36 46
e 36 42
e 36 41
e 36 40
e 36 37
e 37 78
e 37 77
e 37 76
e 37 72
e 37 69
e 37 66
e 37 65
e 37 60
e 37 57
e 37 56
e 37 54
e 37 51
e 37 46
e 37 44
e 37 42
e 37 41
e 37 40
e 38 79
e 38 78
e 38 77
e 38 76
e 38 75
e 38 70
e 38 68
e 38 64
e 38 62
e 38 60
e 38 58
e 38 56
e 38 55
e 38 52
e 38 42
e 39 79
e 39 69
e 39 65
e 39 63
e 39 60
e 39 58
e 39 57
e 39 55
e 39 54
e 39 49
e 39 45
e 39 44
e 39 40
e 40 80
e 40 79
e 40 76
e 40 75
e 40 67
e 40 60
e 40 57
e 40 55
e 40 53
e 40 50
e 40 47
e 40 46
e 40 42
e 40 41
e 41 80
e 41 77
e 41 74
e 41 69
e 41 66
e 41 64
e 41 60
e 41 58
e 41 57
e 41 55
e 41 54
e 41 51
e 41 45
e 41 43
e 41 42
e 42 75
e 42 70
e 42 69
e 42 61
e 42 57
e 42 56
e 42 54
e 42 53
e 42 51
e 42 49
e 42 48
e 42 47
e 42 43
e 43 79
e 43 74
e 43 68
e 43 66
e 43 65
e 43 63
e 43 62
e 43 57
e 43 53
e 43 52
e 43 51
e 43 49
e 43 48
e 43 47
e 43 44
e 44 80
e 44 76
e 44 70
e 44 63
e 44 62
e 44 60
e 44 57
e 44 56
e 44 53
e 44 52
e 44 48
e 45 80
e 45 77
e 45 72
e 45 67
e 45 66
e 45 65
e 45 64
e 45 63
e 45 60
e 45 57
e 45 54
e 45 53
e 45 51
e 45 50
e 45 47
e 45 46
e 46 79
e 46 76
e 46 74
e 46 68
e 46 61
e 46 58
e 46 53
e 46 51
e 46 49
e 46 47
e 47 76
e 47 71
e 47 65
e 47 55
e 47 54
e 47 53
e 47 52
e 47 50
e 47 49
e 47 48
e 48 80
e 48 79
e 48 78
e 48 74
e 48 67
e 48 64
e 48 63
e 48 60
e 48 58
e 48 54
e 48 49
e 49 79
e 49 76
e 49 71
e 49 69
e 49 67
e 49 64
e 49 61
e 49 60
e 49 57
e 49 55
e 49 54
e 49 51
e 49 50
e 50 80
e 50 78
e 50 77
e 50 67
e 50 62
e 50 58
e 50 54
e 50 52
e 51 70
e 51 68
e 51 63
e 51 62
e 51 61
e 51 60
e 51 59
e 51 54
e 51 52
e 52 79
e 52 77
e 52 74
e 52 73
e 52 69
e 52 64
e 52 63
e 52 62
e 52 61
e 52 59
e 52 56
e 53 79
e 53 77
e 53 74
e 53 72
e 53 70
e 53 69
e 53 63
e 53 60
e 53 59
e 53 58
e 53 56
e 54 79
e 54 76
e 54 74
e 54 72
e 54 71
e 54 70
e 54 69
e 54 68
e 54 67
e 54 62
e 54 61
e 54 59
e 54 58
e 55 79
e 55 78
e 55 77
e 55 76
e 55 69
e 55 66
e 55 59
e 55 56
e 56 80
e 56 77
e 56 76
e 56 75
e 56 72
e 56 71
e 56 70
e 56 69
e 56 66
e 56 62
e 56 59
e 56 57
e 57 79
e 57 77
e 57 76
e 57 74
e 57 71
e 57 67
e 57 66
e 57 61
e 57 59
e 57 58
e 58 75
e 58 73
e 58 72
e 58 69
e 58 65
e 58 63
e 58 60
e 59 79
e 59 76
e 59 73
e 59 71
e 59 70
e 59 67
e 59 65
e 59 64
e 59 62
e 60 80
e 60 78
e 60 76
e 60 73
e 60 72
e 60 71
e 60 70
e 60 69
e 60 65
e 60 61
e 61 80
e 61 79
e 61 77
e 61 73
e 61 71
e 61 70
e 61 68
e 61 65
e 61 64
e 61 63
e 61 62
e 62 79
e 62 78
e 62 77
e 62 72
e 62 71
e 62 70
e 62 65
e 62 64
e 62 63
e 63 80
e 63 79
e 63 77
e 63 69
e 63 68
e 63 67
e 63 66
e 63 64
e 64 78
e 64 77
e 64 75
e 64 74
e 64 67
e 65 79
e 65 77
e 65 73
e 65 70
e 65 69
e 66 80
e 66 79
e 66 77
e 66 75
e 66 72
e 66 68
e 67 77
e 67 76
e 67 70
e 67 69
e 67 68
e 68 79
e 68 75
e 68 72
e 69 80
e 69 76
e 69 75
e 69 74
e 69 72
e 70 80
e 70 79
e 70 77
e 70 75
e 70 73
e 71 80
e 71 78
e 71 74
e 71 73
e 72 80
e 72 73
e 73 78
e 74 79
e 74 78
e 74 77
e 74 75
e 75 78
e 75 77
e 76 80
e 78 80
e 78 79
